NAME: random-58-19370
TYPE: TSP
COMMENT: size=58 seed=19370
DIMENSION: 118
EDGE_WEIGHT_TYPE: EUC_2D
NODE_COORD_SECTION
+0 590 221
-0 590 221
+1 707 713
-1 863 457
+2 931 395
-2 884 583
+3 575 697
-3 545 890
+4 990 327
-4 178 222
+5 468 136
-5 354 856
+6 870 928
-6 323 958
+7 41 396
-7 986 959
+8 739 197
-8 421 231
+9 892 933
-9 418 598
+10 895 583
-10 351 296
+11 957 321
-11 962 678
+12 326 999
-12 361 919
+13 525 652
-13 334 725
+14 199 131
-14 783 179
+15 759 936
-15 130 67
+16 553 114
-16 205 181
+17 734 294
-17 654 290
+18 501 910
-18 183 768
+19 88 730
-19 0 584
+20 552 864
-20 101 625
+21 691 632
-21 630 483
+22 597 743
-22 708 859
+23 897 866
-23 737 678
+24 566 590
-24 308 518
+25 41 129
-25 9 622
+26 571 876
-26 816 810
+27 36 695
-27 595 852
+28 576 59
-28 309 690
+29 722 990
-29 739 118
+30 186 344
-30 254 432
+31 710 557
-31 761 491
+32 779 890
-32 433 440
+33 923 781
-33 759 800
+34 837 961
-34 939 804
+35 90 88
-35 576 847
+36 158 1
-36 491 756
+37 649 306
-37 404 708
+38 823 787
-38 579 874
+39 192 942
-39 323 535
+40 910 704
-40 783 308
+41 857 925
-41 533 30
+42 676 871
-42 593 495
+43 415 833
-43 8 128
+44 553 631
-44 167 497
+45 260 923
-45 797 668
+46 956 107
-46 59 15
+47 442 322
-47 464 560
+48 987 658
-48 170 989
+49 271 438
-49 907 62
+50 65 303
-50 373 431
+51 657 762
-51 47 502
+52 589 597
-52 973 977
+53 869 355
-53 401 3
+54 637 295
-54 121 507
+55 136 817
-55 972 606
+56 544 340
-56 376 953
+57 65 885
-57 156 567
+58 988 768
-58 569 469
PRECEDENCE_SECTION
+0 -0
+1 -1
+2 -2
+3 -3
+4 -4
+5 -5
+6 -6
+7 -7
+8 -8
+9 -9
+10 -10
+11 -11
+12 -12
+13 -13
+14 -14
+15 -15
+16 -16
+17 -17
+18 -18
+19 -19
+20 -20
+21 -21
+22 -22
+23 -23
+24 -24
+25 -25
+26 -26
+27 -27
+28 -28
+29 -29
+30 -30
+31 -31
+32 -32
+33 -33
+34 -34
+35 -35
+36 -36
+37 -37
+38 -38
+39 -39
+40 -40
+41 -41
+42 -42
+43 -43
+44 -44
+45 -45
+46 -46
+47 -47
+48 -48
+49 -49
+50 -50
+51 -51
+52 -52
+53 -53
+54 -54
+55 -55
+56 -56
+57 -57
+58 -58
EOF
